NAME JobShopModel
ROWS
 N  OBJ
 G  c0      
 E  c1      
 E  c2      
 E  c3      
 E  c4      
 E  c5      
 E  c6      
 E  c7      
 E  c8      
 E  c9      
 L  c10     
 L  c11     
 L  c12     
 L  c13     
 L  c14     
 L  c15     
 L  c16     
 L  c17     
 L  c18     
 L  c19     
 L  c20     
 L  c21     
 L  c22     
 L  c23     
 L  c24     
 L  c25     
 L  c26     
 L  c27     
 G  c28     
 G  c29     
 G  c30     
 G  c31     
 G  c32     
 G  c33     
 G  c34     
 G  c35     
 G  c36     
 G  c37     
 G  c38     
 G  c39     
 G  c40     
 G  c41     
 G  c42     
 G  c43     
 G  c44     
 G  c45     
 G  c46     
 G  c47     
 G  c48     
 G  c49     
 G  c50     
 G  c51     
 G  c52     
 G  c53     
 G  c54     
 G  c55     
 G  c56     
 G  c57     
 G  c58     
 G  c59     
 G  c60     
 G  c61     
 G  c62     
 G  c63     
 G  c64     
 G  c65     
 G  c66     
 G  c67     
 G  c68     
 G  c69     
 G  c70     
 G  c71     
 G  c72     
 G  c73     
 G  c74     
 G  c75     
 G  c76     
 G  c77     
 G  c78     
 G  c79     
 G  c80     
 G  c81     
 G  c82     
 G  c83     
 G  c84     
 G  c85     
 G  c86     
 G  c87     
 G  c88     
 G  c89     
 G  c90     
 G  c91     
 G  c92     
 G  c93     
 G  c94     
 G  c95     
 G  c96     
 G  c97     
 G  c98     
 G  c99     
 G  c100    
 G  c101    
 G  c102    
 G  c103    
 G  c104    
 G  c105    
 G  c106    
 G  c107    
 G  c108    
 G  c109    
 G  c110    
 G  c111    
 G  c112    
 G  c113    
 G  c114    
 G  c115    
 G  c116    
 G  c117    
 G  c118    
 G  c119    
 G  c120    
 G  c121    
 G  c122    
 G  c123    
 G  c124    
 G  c125    
 G  c126    
 G  c127    
 G  c128    
 G  c129    
 G  c130    
 G  c131    
 G  c132    
 G  c133    
 G  c134    
 G  c135    
 G  c136    
 G  c137    
 G  c138    
 G  c139    
 G  c140    
 G  c141    
 G  c142    
 G  c143    
 G  c144    
 G  c145    
 G  c146    
 G  c147    
 G  c148    
 G  c149    
 G  c150    
 G  c151    
 G  c152    
 G  c153    
 G  c154    
 G  c155    
 G  c156    
 G  c157    
 G  c158    
 G  c159    
 G  c160    
 G  c161    
 G  c162    
 G  c163    
 G  c164    
 G  c165    
COLUMNS
    MARKER    'MARKER'                 'INTORG'
    y[0,0,1]  c0        -4
    y[0,0,1]  c1        1
    y[0,0,1]  c10       -10000000
    y[0,0,1]  c34       -10000000
    y[0,0,1]  c35       -10000000
    y[0,0,1]  c36       -10000000
    y[0,0,1]  c37       -10000000
    y[0,0,1]  c40       -10000000
    y[0,0,1]  c41       -10000000
    y[0,0,1]  c44       -10000000
    y[0,0,1]  c45       -10000000
    y[0,0,1]  c46       -10000000
    y[0,0,1]  c47       -10000000
    y[0,0,1]  c50       -10000000
    y[0,0,1]  c51       -10000000
    y[0,0,1]  c54       -10000000
    y[0,0,1]  c55       -10000000
    y[0,0,1]  c68       -10000000
    y[0,0,1]  c69       -10000000
    y[0,0,1]  c130      -1
    y[0,0,3]  c0        -3
    y[0,0,3]  c1        1
    y[0,0,3]  c11       -10000000
    y[0,0,3]  c38       -10000000
    y[0,0,3]  c39       -10000000
    y[0,0,3]  c42       -10000000
    y[0,0,3]  c43       -10000000
    y[0,0,3]  c48       -10000000
    y[0,0,3]  c49       -10000000
    y[0,0,3]  c52       -10000000
    y[0,0,3]  c53       -10000000
    y[0,0,3]  c70       -10000000
    y[0,0,3]  c71       -10000000
    y[0,0,3]  c132      -1
    y[0,1,0]  c2        1
    y[0,1,0]  c12       -10000000
    y[0,1,0]  c28       -2
    y[0,1,0]  c64       -10000000
    y[0,1,0]  c65       -10000000
    y[0,1,1]  c2        1
    y[0,1,1]  c13       -10000000
    y[0,1,1]  c28       -2
    y[0,1,1]  c34       -10000000
    y[0,1,1]  c35       -10000000
    y[0,1,1]  c54       -10000000
    y[0,1,1]  c55       -10000000
    y[0,1,1]  c56       -10000000
    y[0,1,1]  c57       -10000000
    y[0,1,1]  c58       -10000000
    y[0,1,1]  c59       -10000000
    y[0,1,1]  c60       -10000000
    y[0,1,1]  c61       -10000000
    y[0,1,1]  c62       -10000000
    y[0,1,1]  c63       -10000000
    y[0,1,1]  c66       -10000000
    y[0,1,1]  c67       -10000000
    y[0,1,1]  c72       -10000000
    y[0,1,1]  c73       -10000000
    y[0,2,1]  c3        1
    y[0,2,1]  c14       -10000000
    y[0,2,1]  c29       -5
    y[0,2,1]  c36       -10000000
    y[0,2,1]  c37       -10000000
    y[0,2,1]  c56       -10000000
    y[0,2,1]  c57       -10000000
    y[0,2,1]  c68       -10000000
    y[0,2,1]  c69       -10000000
    y[0,2,1]  c72       -10000000
    y[0,2,1]  c73       -10000000
    y[0,2,1]  c74       -10000000
    y[0,2,1]  c75       -10000000
    y[0,2,1]  c78       -10000000
    y[0,2,1]  c79       -10000000
    y[0,2,1]  c80       -10000000
    y[0,2,1]  c81       -10000000
    y[0,2,1]  c84       -10000000
    y[0,2,1]  c85       -10000000
    y[0,2,1]  c138      -3
    y[0,2,3]  c3        1
    y[0,2,3]  c15       -10000000
    y[0,2,3]  c29       -4
    y[0,2,3]  c38       -10000000
    y[0,2,3]  c39       -10000000
    y[0,2,3]  c70       -10000000
    y[0,2,3]  c71       -10000000
    y[0,2,3]  c76       -10000000
    y[0,2,3]  c77       -10000000
    y[0,2,3]  c82       -10000000
    y[0,2,3]  c83       -10000000
    y[0,2,3]  c86       -10000000
    y[0,2,3]  c87       -10000000
    y[0,2,3]  c140      -3
    y[1,0,1]  c0        -4
    y[1,0,1]  c4        1
    y[1,0,1]  c16       -10000000
    y[1,0,1]  c40       -10000000
    y[1,0,1]  c41       -10000000
    y[1,0,1]  c58       -10000000
    y[1,0,1]  c59       -10000000
    y[1,0,1]  c74       -10000000
    y[1,0,1]  c75       -10000000
    y[1,0,1]  c90       -10000000
    y[1,0,1]  c91       -10000000
    y[1,0,1]  c94       -10000000
    y[1,0,1]  c95       -10000000
    y[1,0,1]  c96       -10000000
    y[1,0,1]  c97       -10000000
    y[1,0,1]  c110      -10000000
    y[1,0,1]  c111      -10000000
    y[1,0,1]  c142      -3
    y[1,0,2]  c0        -2
    y[1,0,2]  c4        1
    y[1,0,2]  c17       -10000000
    y[1,0,2]  c88       -10000000
    y[1,0,2]  c89       -10000000
    y[1,0,2]  c92       -10000000
    y[1,0,2]  c93       -10000000
    y[1,0,2]  c98       -10000000
    y[1,0,2]  c99       -10000000
    y[1,0,2]  c100      -10000000
    y[1,0,2]  c101      -10000000
    y[1,0,2]  c112      -10000000
    y[1,0,2]  c113      -10000000
    y[1,0,2]  c144      -3
    y[1,1,2]  c5        1
    y[1,1,2]  c18       -10000000
    y[1,1,2]  c30       -5
    y[1,1,2]  c88       -10000000
    y[1,1,2]  c89       -10000000
    y[1,1,2]  c100      -10000000
    y[1,1,2]  c101      -10000000
    y[1,1,2]  c102      -10000000
    y[1,1,2]  c103      -10000000
    y[1,1,2]  c106      -10000000
    y[1,1,2]  c107      -10000000
    y[1,1,2]  c114      -10000000
    y[1,1,2]  c115      -10000000
    y[1,1,2]  c146      -2
    y[1,1,3]  c5        1
    y[1,1,3]  c19       -10000000
    y[1,1,3]  c30       -4
    y[1,1,3]  c42       -10000000
    y[1,1,3]  c43       -10000000
    y[1,1,3]  c76       -10000000
    y[1,1,3]  c77       -10000000
    y[1,1,3]  c104      -10000000
    y[1,1,3]  c105      -10000000
    y[1,1,3]  c108      -10000000
    y[1,1,3]  c109      -10000000
    y[1,1,3]  c148      -2
    y[1,2,1]  c6        1
    y[1,2,1]  c20       -10000000
    y[1,2,1]  c31       -3
    y[1,2,1]  c44       -10000000
    y[1,2,1]  c45       -10000000
    y[1,2,1]  c60       -10000000
    y[1,2,1]  c61       -10000000
    y[1,2,1]  c78       -10000000
    y[1,2,1]  c79       -10000000
    y[1,2,1]  c90       -10000000
    y[1,2,1]  c91       -10000000
    y[1,2,1]  c110      -10000000
    y[1,2,1]  c111      -10000000
    y[1,2,1]  c116      -10000000
    y[1,2,1]  c117      -10000000
    y[1,2,1]  c118      -10000000
    y[1,2,1]  c119      -10000000
    y[1,2,2]  c6        1
    y[1,2,2]  c21       -10000000
    y[1,2,2]  c31       -5
    y[1,2,2]  c92       -10000000
    y[1,2,2]  c93       -10000000
    y[1,2,2]  c102      -10000000
    y[1,2,2]  c103      -10000000
    y[1,2,2]  c112      -10000000
    y[1,2,2]  c113      -10000000
    y[1,2,2]  c114      -10000000
    y[1,2,2]  c115      -10000000
    y[1,2,2]  c120      -10000000
    y[1,2,2]  c121      -10000000
    y[2,0,1]  c0        -5
    y[2,0,1]  c7        1
    y[2,0,1]  c22       -10000000
    y[2,0,1]  c46       -10000000
    y[2,0,1]  c47       -10000000
    y[2,0,1]  c62       -10000000
    y[2,0,1]  c63       -10000000
    y[2,0,1]  c80       -10000000
    y[2,0,1]  c81       -10000000
    y[2,0,1]  c94       -10000000
    y[2,0,1]  c95       -10000000
    y[2,0,1]  c116      -10000000
    y[2,0,1]  c117      -10000000
    y[2,0,1]  c122      -10000000
    y[2,0,1]  c123      -10000000
    y[2,0,1]  c126      -10000000
    y[2,0,1]  c127      -10000000
    y[2,0,1]  c154      -1
    y[2,0,3]  c0        -4
    y[2,0,3]  c7        1
    y[2,0,3]  c23       -10000000
    y[2,0,3]  c48       -10000000
    y[2,0,3]  c49       -10000000
    y[2,0,3]  c82       -10000000
    y[2,0,3]  c83       -10000000
    y[2,0,3]  c104      -10000000
    y[2,0,3]  c105      -10000000
    y[2,0,3]  c124      -10000000
    y[2,0,3]  c125      -10000000
    y[2,0,3]  c128      -10000000
    y[2,0,3]  c129      -10000000
    y[2,0,3]  c156      -1
    y[2,1,0]  c8        1
    y[2,1,0]  c24       -10000000
    y[2,1,0]  c32       -2
    y[2,1,0]  c64       -10000000
    y[2,1,0]  c65       -10000000
    y[2,1,1]  c8        1
    y[2,1,1]  c25       -10000000
    y[2,1,1]  c32       -2
    y[2,1,1]  c50       -10000000
    y[2,1,1]  c51       -10000000
    y[2,1,1]  c66       -10000000
    y[2,1,1]  c67       -10000000
    y[2,1,1]  c84       -10000000
    y[2,1,1]  c85       -10000000
    y[2,1,1]  c96       -10000000
    y[2,1,1]  c97       -10000000
    y[2,1,1]  c118      -10000000
    y[2,1,1]  c119      -10000000
    y[2,1,1]  c122      -10000000
    y[2,1,1]  c123      -10000000
    y[2,1,1]  c126      -10000000
    y[2,1,1]  c127      -10000000
    y[2,2,2]  c9        1
    y[2,2,2]  c26       -10000000
    y[2,2,2]  c33       -2
    y[2,2,2]  c98       -10000000
    y[2,2,2]  c99       -10000000
    y[2,2,2]  c106      -10000000
    y[2,2,2]  c107      -10000000
    y[2,2,2]  c120      -10000000
    y[2,2,2]  c121      -10000000
    y[2,2,3]  c9        1
    y[2,2,3]  c27       -10000000
    y[2,2,3]  c33       -5
    y[2,2,3]  c52       -10000000
    y[2,2,3]  c53       -10000000
    y[2,2,3]  c86       -10000000
    y[2,2,3]  c87       -10000000
    y[2,2,3]  c108      -10000000
    y[2,2,3]  c109      -10000000
    y[2,2,3]  c124      -10000000
    y[2,2,3]  c125      -10000000
    y[2,2,3]  c128      -10000000
    y[2,2,3]  c129      -10000000
    x[0,0,0,0]  OBJ       0
    x[0,0,0,1]  c34       10000000
    x[0,0,0,1]  c35       -10000000
    x[0,0,0,2]  c36       10000000
    x[0,0,0,2]  c37       -10000000
    x[0,0,0,2]  c38       10000000
    x[0,0,0,2]  c39       -10000000
    x[0,0,1,0]  c40       10000000
    x[0,0,1,0]  c41       -10000000
    x[0,0,1,1]  c42       10000000
    x[0,0,1,1]  c43       -10000000
    x[0,0,1,2]  c44       10000000
    x[0,0,1,2]  c45       -10000000
    x[0,0,2,0]  c46       10000000
    x[0,0,2,0]  c47       -10000000
    x[0,0,2,0]  c48       10000000
    x[0,0,2,0]  c49       -10000000
    x[0,0,2,1]  c50       10000000
    x[0,0,2,1]  c51       -10000000
    x[0,0,2,2]  c52       10000000
    x[0,0,2,2]  c53       -10000000
    x[0,1,0,0]  c54       10000000
    x[0,1,0,0]  c55       -10000000
    x[0,1,0,1]  OBJ       0
    x[0,1,0,2]  c56       10000000
    x[0,1,0,2]  c57       -10000000
    x[0,1,1,0]  c58       10000000
    x[0,1,1,0]  c59       -10000000
    x[0,1,1,1]  OBJ       0
    x[0,1,1,2]  c60       10000000
    x[0,1,1,2]  c61       -10000000
    x[0,1,2,0]  c62       10000000
    x[0,1,2,0]  c63       -10000000
    x[0,1,2,1]  c64       10000000
    x[0,1,2,1]  c65       -10000000
    x[0,1,2,1]  c66       10000000
    x[0,1,2,1]  c67       -10000000
    x[0,1,2,2]  OBJ       0
    x[0,2,0,0]  c68       10000000
    x[0,2,0,0]  c69       -10000000
    x[0,2,0,0]  c70       10000000
    x[0,2,0,0]  c71       -10000000
    x[0,2,0,1]  c72       10000000
    x[0,2,0,1]  c73       -10000000
    x[0,2,0,2]  OBJ       0
    x[0,2,1,0]  c74       10000000
    x[0,2,1,0]  c75       -10000000
    x[0,2,1,1]  c76       10000000
    x[0,2,1,1]  c77       -10000000
    x[0,2,1,2]  c78       10000000
    x[0,2,1,2]  c79       -10000000
    x[0,2,2,0]  c80       10000000
    x[0,2,2,0]  c81       -10000000
    x[0,2,2,0]  c82       10000000
    x[0,2,2,0]  c83       -10000000
    x[0,2,2,1]  c84       10000000
    x[0,2,2,1]  c85       -10000000
    x[0,2,2,2]  c86       10000000
    x[0,2,2,2]  c87       -10000000
    x[1,0,0,0]  OBJ       0
    x[1,0,0,1]  OBJ       0
    x[1,0,0,2]  OBJ       0
    x[1,0,1,0]  OBJ       0
    x[1,0,1,1]  c88       10000000
    x[1,0,1,1]  c89       -10000000
    x[1,0,1,2]  c90       10000000
    x[1,0,1,2]  c91       -10000000
    x[1,0,1,2]  c92       10000000
    x[1,0,1,2]  c93       -10000000
    x[1,0,2,0]  c94       10000000
    x[1,0,2,0]  c95       -10000000
    x[1,0,2,1]  c96       10000000
    x[1,0,2,1]  c97       -10000000
    x[1,0,2,2]  c98       10000000
    x[1,0,2,2]  c99       -10000000
    x[1,1,0,0]  OBJ       0
    x[1,1,0,1]  OBJ       0
    x[1,1,0,2]  OBJ       0
    x[1,1,1,0]  c100      10000000
    x[1,1,1,0]  c101      -10000000
    x[1,1,1,1]  OBJ       0
    x[1,1,1,2]  c102      10000000
    x[1,1,1,2]  c103      -10000000
    x[1,1,2,0]  c104      10000000
    x[1,1,2,0]  c105      -10000000
    x[1,1,2,1]  OBJ       0
    x[1,1,2,2]  c106      10000000
    x[1,1,2,2]  c107      -10000000
    x[1,1,2,2]  c108      10000000
    x[1,1,2,2]  c109      -10000000
    x[1,2,0,0]  OBJ       0
    x[1,2,0,1]  OBJ       0
    x[1,2,0,2]  OBJ       0
    x[1,2,1,0]  c110      10000000
    x[1,2,1,0]  c111      -10000000
    x[1,2,1,0]  c112      10000000
    x[1,2,1,0]  c113      -10000000
    x[1,2,1,1]  c114      10000000
    x[1,2,1,1]  c115      -10000000
    x[1,2,1,2]  OBJ       0
    x[1,2,2,0]  c116      10000000
    x[1,2,2,0]  c117      -10000000
    x[1,2,2,1]  c118      10000000
    x[1,2,2,1]  c119      -10000000
    x[1,2,2,2]  c120      10000000
    x[1,2,2,2]  c121      -10000000
    x[2,0,0,0]  OBJ       0
    x[2,0,0,1]  OBJ       0
    x[2,0,0,2]  OBJ       0
    x[2,0,1,0]  OBJ       0
    x[2,0,1,1]  OBJ       0
    x[2,0,1,2]  OBJ       0
    x[2,0,2,0]  OBJ       0
    x[2,0,2,1]  c122      10000000
    x[2,0,2,1]  c123      -10000000
    x[2,0,2,2]  c124      10000000
    x[2,0,2,2]  c125      -10000000
    x[2,1,0,0]  OBJ       0
    x[2,1,0,1]  OBJ       0
    x[2,1,0,2]  OBJ       0
    x[2,1,1,0]  OBJ       0
    x[2,1,1,1]  OBJ       0
    x[2,1,1,2]  OBJ       0
    x[2,1,2,0]  c126      10000000
    x[2,1,2,0]  c127      -10000000
    x[2,1,2,1]  OBJ       0
    x[2,1,2,2]  OBJ       0
    x[2,2,0,0]  OBJ       0
    x[2,2,0,1]  OBJ       0
    x[2,2,0,2]  OBJ       0
    x[2,2,1,0]  OBJ       0
    x[2,2,1,1]  OBJ       0
    x[2,2,1,2]  OBJ       0
    x[2,2,2,0]  c128      10000000
    x[2,2,2,0]  c129      -10000000
    x[2,2,2,1]  OBJ       0
    x[2,2,2,2]  OBJ       0
    s[0,0,1]  c0        -1
    s[0,0,1]  c10       1
    s[0,0,1]  c28       1
    s[0,0,1]  c34       -1
    s[0,0,1]  c35       1
    s[0,0,1]  c36       -1
    s[0,0,1]  c37       1
    s[0,0,1]  c40       -1
    s[0,0,1]  c41       1
    s[0,0,1]  c44       -1
    s[0,0,1]  c45       1
    s[0,0,1]  c46       -1
    s[0,0,1]  c47       1
    s[0,0,1]  c50       -1
    s[0,0,1]  c51       1
    s[0,0,1]  c54       1
    s[0,0,1]  c55       -1
    s[0,0,1]  c68       1
    s[0,0,1]  c69       -1
    s[0,0,1]  c130      1
    s[0,0,1]  c131      1
    s[0,0,3]  c0        -1
    s[0,0,3]  c11       1
    s[0,0,3]  c28       1
    s[0,0,3]  c38       -1
    s[0,0,3]  c39       1
    s[0,0,3]  c42       -1
    s[0,0,3]  c43       1
    s[0,0,3]  c48       -1
    s[0,0,3]  c49       1
    s[0,0,3]  c52       -1
    s[0,0,3]  c53       1
    s[0,0,3]  c70       1
    s[0,0,3]  c71       -1
    s[0,0,3]  c132      1
    s[0,0,3]  c133      1
    s[0,1,0]  c12       1
    s[0,1,0]  c28       -1
    s[0,1,0]  c29       1
    s[0,1,0]  c64       -1
    s[0,1,0]  c65       1
    s[0,1,0]  c134      1
    s[0,1,0]  c135      1
    s[0,1,1]  c13       1
    s[0,1,1]  c28       -1
    s[0,1,1]  c29       1
    s[0,1,1]  c34       1
    s[0,1,1]  c35       -1
    s[0,1,1]  c54       -1
    s[0,1,1]  c55       1
    s[0,1,1]  c56       -1
    s[0,1,1]  c57       1
    s[0,1,1]  c58       -1
    s[0,1,1]  c59       1
    s[0,1,1]  c60       -1
    s[0,1,1]  c61       1
    s[0,1,1]  c62       -1
    s[0,1,1]  c63       1
    s[0,1,1]  c66       -1
    s[0,1,1]  c67       1
    s[0,1,1]  c72       1
    s[0,1,1]  c73       -1
    s[0,1,1]  c136      1
    s[0,1,1]  c137      1
    s[0,2,1]  c14       1
    s[0,2,1]  c29       -1
    s[0,2,1]  c36       1
    s[0,2,1]  c37       -1
    s[0,2,1]  c56       1
    s[0,2,1]  c57       -1
    s[0,2,1]  c68       -1
    s[0,2,1]  c69       1
    s[0,2,1]  c72       -1
    s[0,2,1]  c73       1
    s[0,2,1]  c74       -1
    s[0,2,1]  c75       1
    s[0,2,1]  c78       -1
    s[0,2,1]  c79       1
    s[0,2,1]  c80       -1
    s[0,2,1]  c81       1
    s[0,2,1]  c84       -1
    s[0,2,1]  c85       1
    s[0,2,1]  c138      1
    s[0,2,1]  c139      1
    s[0,2,3]  c15       1
    s[0,2,3]  c29       -1
    s[0,2,3]  c38       1
    s[0,2,3]  c39       -1
    s[0,2,3]  c70       -1
    s[0,2,3]  c71       1
    s[0,2,3]  c76       -1
    s[0,2,3]  c77       1
    s[0,2,3]  c82       -1
    s[0,2,3]  c83       1
    s[0,2,3]  c86       -1
    s[0,2,3]  c87       1
    s[0,2,3]  c140      1
    s[0,2,3]  c141      1
    s[1,0,1]  c0        -1
    s[1,0,1]  c16       1
    s[1,0,1]  c30       1
    s[1,0,1]  c31       1
    s[1,0,1]  c40       1
    s[1,0,1]  c41       -1
    s[1,0,1]  c58       1
    s[1,0,1]  c59       -1
    s[1,0,1]  c74       1
    s[1,0,1]  c75       -1
    s[1,0,1]  c90       -1
    s[1,0,1]  c91       1
    s[1,0,1]  c94       -1
    s[1,0,1]  c95       1
    s[1,0,1]  c96       -1
    s[1,0,1]  c97       1
    s[1,0,1]  c110      1
    s[1,0,1]  c111      -1
    s[1,0,1]  c142      1
    s[1,0,1]  c143      1
    s[1,0,2]  c0        -1
    s[1,0,2]  c17       1
    s[1,0,2]  c30       1
    s[1,0,2]  c31       1
    s[1,0,2]  c88       -1
    s[1,0,2]  c89       1
    s[1,0,2]  c92       -1
    s[1,0,2]  c93       1
    s[1,0,2]  c98       -1
    s[1,0,2]  c99       1
    s[1,0,2]  c100      1
    s[1,0,2]  c101      -1
    s[1,0,2]  c112      1
    s[1,0,2]  c113      -1
    s[1,0,2]  c144      1
    s[1,0,2]  c145      1
    s[1,1,2]  c18       1
    s[1,1,2]  c30       -1
    s[1,1,2]  c88       1
    s[1,1,2]  c89       -1
    s[1,1,2]  c100      -1
    s[1,1,2]  c101      1
    s[1,1,2]  c102      -1
    s[1,1,2]  c103      1
    s[1,1,2]  c106      -1
    s[1,1,2]  c107      1
    s[1,1,2]  c114      1
    s[1,1,2]  c115      -1
    s[1,1,2]  c146      1
    s[1,1,2]  c147      1
    s[1,1,3]  c19       1
    s[1,1,3]  c30       -1
    s[1,1,3]  c42       1
    s[1,1,3]  c43       -1
    s[1,1,3]  c76       1
    s[1,1,3]  c77       -1
    s[1,1,3]  c104      -1
    s[1,1,3]  c105      1
    s[1,1,3]  c108      -1
    s[1,1,3]  c109      1
    s[1,1,3]  c148      1
    s[1,1,3]  c149      1
    s[1,2,1]  c20       1
    s[1,2,1]  c31       -1
    s[1,2,1]  c44       1
    s[1,2,1]  c45       -1
    s[1,2,1]  c60       1
    s[1,2,1]  c61       -1
    s[1,2,1]  c78       1
    s[1,2,1]  c79       -1
    s[1,2,1]  c90       1
    s[1,2,1]  c91       -1
    s[1,2,1]  c110      -1
    s[1,2,1]  c111      1
    s[1,2,1]  c116      -1
    s[1,2,1]  c117      1
    s[1,2,1]  c118      -1
    s[1,2,1]  c119      1
    s[1,2,1]  c150      1
    s[1,2,1]  c151      1
    s[1,2,2]  c21       1
    s[1,2,2]  c31       -1
    s[1,2,2]  c92       1
    s[1,2,2]  c93       -1
    s[1,2,2]  c102      1
    s[1,2,2]  c103      -1
    s[1,2,2]  c112      -1
    s[1,2,2]  c113      1
    s[1,2,2]  c114      -1
    s[1,2,2]  c115      1
    s[1,2,2]  c120      -1
    s[1,2,2]  c121      1
    s[1,2,2]  c152      1
    s[1,2,2]  c153      1
    s[2,0,1]  c0        -1
    s[2,0,1]  c22       1
    s[2,0,1]  c32       1
    s[2,0,1]  c46       1
    s[2,0,1]  c47       -1
    s[2,0,1]  c62       1
    s[2,0,1]  c63       -1
    s[2,0,1]  c80       1
    s[2,0,1]  c81       -1
    s[2,0,1]  c94       1
    s[2,0,1]  c95       -1
    s[2,0,1]  c116      1
    s[2,0,1]  c117      -1
    s[2,0,1]  c122      -1
    s[2,0,1]  c123      1
    s[2,0,1]  c126      1
    s[2,0,1]  c127      -1
    s[2,0,1]  c154      1
    s[2,0,1]  c155      1
    s[2,0,3]  c0        -1
    s[2,0,3]  c23       1
    s[2,0,3]  c32       1
    s[2,0,3]  c48       1
    s[2,0,3]  c49       -1
    s[2,0,3]  c82       1
    s[2,0,3]  c83       -1
    s[2,0,3]  c104      1
    s[2,0,3]  c105      -1
    s[2,0,3]  c124      -1
    s[2,0,3]  c125      1
    s[2,0,3]  c128      1
    s[2,0,3]  c129      -1
    s[2,0,3]  c156      1
    s[2,0,3]  c157      1
    s[2,1,0]  c24       1
    s[2,1,0]  c32       -1
    s[2,1,0]  c33       1
    s[2,1,0]  c64       1
    s[2,1,0]  c65       -1
    s[2,1,0]  c158      1
    s[2,1,0]  c159      1
    s[2,1,1]  c25       1
    s[2,1,1]  c32       -1
    s[2,1,1]  c33       1
    s[2,1,1]  c50       1
    s[2,1,1]  c51       -1
    s[2,1,1]  c66       1
    s[2,1,1]  c67       -1
    s[2,1,1]  c84       1
    s[2,1,1]  c85       -1
    s[2,1,1]  c96       1
    s[2,1,1]  c97       -1
    s[2,1,1]  c118      1
    s[2,1,1]  c119      -1
    s[2,1,1]  c122      1
    s[2,1,1]  c123      -1
    s[2,1,1]  c126      -1
    s[2,1,1]  c127      1
    s[2,1,1]  c160      1
    s[2,1,1]  c161      1
    s[2,2,2]  c26       1
    s[2,2,2]  c33       -1
    s[2,2,2]  c98       1
    s[2,2,2]  c99       -1
    s[2,2,2]  c106      1
    s[2,2,2]  c107      -1
    s[2,2,2]  c120      1
    s[2,2,2]  c121      -1
    s[2,2,2]  c162      1
    s[2,2,2]  c163      1
    s[2,2,3]  c27       1
    s[2,2,3]  c33       -1
    s[2,2,3]  c52       1
    s[2,2,3]  c53       -1
    s[2,2,3]  c86       1
    s[2,2,3]  c87       -1
    s[2,2,3]  c108      1
    s[2,2,3]  c109      -1
    s[2,2,3]  c124      1
    s[2,2,3]  c125      -1
    s[2,2,3]  c128      -1
    s[2,2,3]  c129      1
    s[2,2,3]  c164      1
    s[2,2,3]  c165      1
    Z_FO      OBJ       1
    Z_FO      c0        1
    MARKER    'MARKER'                 'INTEND'
RHS
    RHS1      c1        1
    RHS1      c2        1
    RHS1      c3        1
    RHS1      c4        1
    RHS1      c5        1
    RHS1      c6        1
    RHS1      c7        1
    RHS1      c8        1
    RHS1      c9        1
    RHS1      c34       -19999990
    RHS1      c35       -29999978
    RHS1      c36       -19999990
    RHS1      c37       -29999991
    RHS1      c38       -19999991
    RHS1      c39       -29999991
    RHS1      c40       -19999971
    RHS1      c41       -29999993
    RHS1      c42       -19999995
    RHS1      c43       -29999990
    RHS1      c44       -19999981
    RHS1      c45       -29999992
    RHS1      c46       -19999992
    RHS1      c47       -29999975
    RHS1      c48       -19999977
    RHS1      c49       -29999981
    RHS1      c50       -19999992
    RHS1      c51       -29999990
    RHS1      c52       -19999982
    RHS1      c53       -29999987
    RHS1      c54       -19999978
    RHS1      c55       -29999990
    RHS1      c56       -19999989
    RHS1      c57       -29999975
    RHS1      c58       -19999989
    RHS1      c59       -29999987
    RHS1      c60       -19999992
    RHS1      c61       -29999995
    RHS1      c62       -19999994
    RHS1      c63       -29999986
    RHS1      c64       -19999990
    RHS1      c65       -29999995
    RHS1      c66       -19999995
    RHS1      c67       -29999989
    RHS1      c68       -19999991
    RHS1      c69       -29999990
    RHS1      c70       -19999991
    RHS1      c71       -29999991
    RHS1      c72       -19999975
    RHS1      c73       -29999989
    RHS1      c74       -19999975
    RHS1      c75       -29999981
    RHS1      c76       -19999976
    RHS1      c77       -29999991
    RHS1      c78       -19999989
    RHS1      c79       -29999985
    RHS1      c80       -19999989
    RHS1      c81       -29999985
    RHS1      c82       -19999980
    RHS1      c83       -29999988
    RHS1      c84       -19999989
    RHS1      c85       -29999992
    RHS1      c86       -19999992
    RHS1      c87       -29999986
    RHS1      c88       -19999996
    RHS1      c89       -29999991
    RHS1      c90       -19999994
    RHS1      c91       -29999985
    RHS1      c92       -19999994
    RHS1      c93       -29999983
    RHS1      c94       -19999988
    RHS1      c95       -29999989
    RHS1      c96       -19999990
    RHS1      c97       -29999978
    RHS1      c98       -19999996
    RHS1      c99       -29999978
    RHS1      c100      -19999991
    RHS1      c101      -29999996
    RHS1      c102      -19999989
    RHS1      c103      -29999991
    RHS1      c104      -19999992
    RHS1      c105      -29999976
    RHS1      c106      -19999983
    RHS1      c107      -29999988
    RHS1      c108      -19999984
    RHS1      c109      -29999990
    RHS1      c110      -19999985
    RHS1      c111      -29999994
    RHS1      c112      -19999983
    RHS1      c113      -29999994
    RHS1      c114      -19999991
    RHS1      c115      -29999989
    RHS1      c116      -19999992
    RHS1      c117      -29999989
    RHS1      c118      -19999993
    RHS1      c119      -29999973
    RHS1      c120      -19999975
    RHS1      c121      -29999986
    RHS1      c122      -19999986
    RHS1      c123      -29999993
    RHS1      c124      -19999981
    RHS1      c125      -29999987
    RHS1      c126      -19999993
    RHS1      c127      -29999986
    RHS1      c128      -19999987
    RHS1      c129      -29999981
BOUNDS
 BV BND1      y[0,0,1]
 BV BND1      y[0,0,3]
 BV BND1      y[0,1,0]
 BV BND1      y[0,1,1]
 BV BND1      y[0,2,1]
 BV BND1      y[0,2,3]
 BV BND1      y[1,0,1]
 BV BND1      y[1,0,2]
 BV BND1      y[1,1,2]
 BV BND1      y[1,1,3]
 BV BND1      y[1,2,1]
 BV BND1      y[1,2,2]
 BV BND1      y[2,0,1]
 BV BND1      y[2,0,3]
 BV BND1      y[2,1,0]
 BV BND1      y[2,1,1]
 BV BND1      y[2,2,2]
 BV BND1      y[2,2,3]
 BV BND1      x[0,0,0,0]
 BV BND1      x[0,0,0,1]
 BV BND1      x[0,0,0,2]
 BV BND1      x[0,0,1,0]
 BV BND1      x[0,0,1,1]
 BV BND1      x[0,0,1,2]
 BV BND1      x[0,0,2,0]
 BV BND1      x[0,0,2,1]
 BV BND1      x[0,0,2,2]
 BV BND1      x[0,1,0,0]
 BV BND1      x[0,1,0,1]
 BV BND1      x[0,1,0,2]
 BV BND1      x[0,1,1,0]
 BV BND1      x[0,1,1,1]
 BV BND1      x[0,1,1,2]
 BV BND1      x[0,1,2,0]
 BV BND1      x[0,1,2,1]
 BV BND1      x[0,1,2,2]
 BV BND1      x[0,2,0,0]
 BV BND1      x[0,2,0,1]
 BV BND1      x[0,2,0,2]
 BV BND1      x[0,2,1,0]
 BV BND1      x[0,2,1,1]
 BV BND1      x[0,2,1,2]
 BV BND1      x[0,2,2,0]
 BV BND1      x[0,2,2,1]
 BV BND1      x[0,2,2,2]
 BV BND1      x[1,0,0,0]
 BV BND1      x[1,0,0,1]
 BV BND1      x[1,0,0,2]
 BV BND1      x[1,0,1,0]
 BV BND1      x[1,0,1,1]
 BV BND1      x[1,0,1,2]
 BV BND1      x[1,0,2,0]
 BV BND1      x[1,0,2,1]
 BV BND1      x[1,0,2,2]
 BV BND1      x[1,1,0,0]
 BV BND1      x[1,1,0,1]
 BV BND1      x[1,1,0,2]
 BV BND1      x[1,1,1,0]
 BV BND1      x[1,1,1,1]
 BV BND1      x[1,1,1,2]
 BV BND1      x[1,1,2,0]
 BV BND1      x[1,1,2,1]
 BV BND1      x[1,1,2,2]
 BV BND1      x[1,2,0,0]
 BV BND1      x[1,2,0,1]
 BV BND1      x[1,2,0,2]
 BV BND1      x[1,2,1,0]
 BV BND1      x[1,2,1,1]
 BV BND1      x[1,2,1,2]
 BV BND1      x[1,2,2,0]
 BV BND1      x[1,2,2,1]
 BV BND1      x[1,2,2,2]
 BV BND1      x[2,0,0,0]
 BV BND1      x[2,0,0,1]
 BV BND1      x[2,0,0,2]
 BV BND1      x[2,0,1,0]
 BV BND1      x[2,0,1,1]
 BV BND1      x[2,0,1,2]
 BV BND1      x[2,0,2,0]
 BV BND1      x[2,0,2,1]
 BV BND1      x[2,0,2,2]
 BV BND1      x[2,1,0,0]
 BV BND1      x[2,1,0,1]
 BV BND1      x[2,1,0,2]
 BV BND1      x[2,1,1,0]
 BV BND1      x[2,1,1,1]
 BV BND1      x[2,1,1,2]
 BV BND1      x[2,1,2,0]
 BV BND1      x[2,1,2,1]
 BV BND1      x[2,1,2,2]
 BV BND1      x[2,2,0,0]
 BV BND1      x[2,2,0,1]
 BV BND1      x[2,2,0,2]
 BV BND1      x[2,2,1,0]
 BV BND1      x[2,2,1,1]
 BV BND1      x[2,2,1,2]
 BV BND1      x[2,2,2,0]
 BV BND1      x[2,2,2,1]
 BV BND1      x[2,2,2,2]
 LI BND1      s[0,0,1]  0
 LI BND1      s[0,0,3]  0
 LI BND1      s[0,1,0]  0
 LI BND1      s[0,1,1]  0
 LI BND1      s[0,2,1]  0
 LI BND1      s[0,2,3]  0
 LI BND1      s[1,0,1]  0
 LI BND1      s[1,0,2]  0
 LI BND1      s[1,1,2]  0
 LI BND1      s[1,1,3]  0
 LI BND1      s[1,2,1]  0
 LI BND1      s[1,2,2]  0
 LI BND1      s[2,0,1]  0
 LI BND1      s[2,0,3]  0
 LI BND1      s[2,1,0]  0
 LI BND1      s[2,1,1]  0
 LI BND1      s[2,2,2]  0
 LI BND1      s[2,2,3]  0
 LI BND1      Z_FO      0
ENDATA
